<instance format="XCSP3" type="COP">
  <variables>
    <array id="s" note="Start time of operation j for job i" size="[15][15]"> 0..1055 </array>
    <array id="e" note="End time of last operation of job i" size="[15]"> 0..1055 </array>
    <array id="d" note="Duration of operation j for job i" size="[15][15]">
      <domain for="d[0][]"> 8 10 16 19 21 22 28 46 47 53 78 85 98 </domain>
      <domain for="d[1][]"> 6 18 23 25 36 40 51 57 71..73 77 80 83 </domain>
      <domain for="d[2][]"> 9 16 32 38 47 56 58 65 68 78 81 85 86 </domain>
      <domain for="d[3][]"> 22 29 39 42 47 54 58 65 70 72 78 82 97 99 </domain>
      <domain for="d[4][]"> 5 24 27 33 35 38 43 58 60 70 78 79 88 93 </domain>
      <domain for="d[5][]"> 11 15 16 19 36 42 48 55 63 67 72 75 82 </domain>
      <domain for="d[6][]"> 3 6 10 29 33 40 43 51 56 61 62 72 94 </domain>
      <domain for="d[7][]"> 1 4 10 18 22 23 34 39 60 65 74 80 82 86 90 </domain>
      <domain for="d[8][]"> 2 18 19 25 27 33 41 47 51 55 56 60 76 80 82 </domain>
      <domain for="d[9][]"> 6 24 25 33 36 44 53 55 59 66 69 82 96 </domain>
      <domain for="d[10][]"> 8 9 35 36 50 55 59 60 73 78 82 84 98 </domain>
      <domain for="d[11][]"> 17 20 23 26 28 38 39 44 48 51 59 66 77 86 </domain>
      <domain for="d[12][]"> 3 7 23 58 63..65 67 68 70 75 80 84 89 98 </domain>
      <domain for="d[13][]"> 5 14 16 20 32 40 51 57 58 78 79 83 84 86 </domain>
      <domain for="d[14][]"> 4 13 17 21 23 26 40 41 65 72 79 86 88 91 94 </domain>
    </array>
    <array id="w" note="Which machine for operation j of job i" size="[15][15]"> 0..14 </array>
    <array id="sd" note="Start (dual) time of job i, machine k" size="[15][15]"> 0..1055 </array>
  </variables>
  <constraints>
    <group>
      <intension> eq(%0,add(%1,%2)) </intension>
      <args> e[0] s[0][14] d[0][14] </args>
      <args> e[1] s[1][14] d[1][14] </args>
      <args> e[2] s[2][14] d[2][14] </args>
      <args> e[3] s[3][14] d[3][14] </args>
      <args> e[4] s[4][14] d[4][14] </args>
      <args> e[5] s[5][14] d[5][14] </args>
      <args> e[6] s[6][14] d[6][14] </args>
      <args> e[7] s[7][14] d[7][14] </args>
      <args> e[8] s[8][14] d[8][14] </args>
      <args> e[9] s[9][14] d[9][14] </args>
      <args> e[10] s[10][14] d[10][14] </args>
      <args> e[11] s[11][14] d[11][14] </args>
      <args> e[12] s[12][14] d[12][14] </args>
      <args> e[13] s[13][14] d[13][14] </args>
      <args> e[14] s[14][14] d[14][14] </args>
    </group>
    <group>
      <allDifferent> %... </allDifferent>
      <args> w[0][] </args>
      <args> w[1][] </args>
      <args> w[2][] </args>
      <args> w[3][] </args>
      <args> w[4][] </args>
      <args> w[5][] </args>
      <args> w[6][] </args>
      <args> w[7][] </args>
      <args> w[8][] </args>
      <args> w[9][] </args>
      <args> w[10][] </args>
      <args> w[11][] </args>
      <args> w[12][] </args>
      <args> w[13][] </args>
      <args> w[14][] </args>
    </group>
    <block>
      <group>
        <extension>
          <list> %0 %1 </list>
          <supports> (0,28)(1,98)(2,10)(3,53)(4,16)(5,21)(6,16)(7,47)(8,78)(9,19)(10,85)(11,8)(12,22)(13,46)(14,78) </supports>
        </extension>
        <args> w[0][0] d[0][0] </args>
        <args> w[0][1] d[0][1] </args>
        <args> w[0][2] d[0][2] </args>
        <args> w[0][3] d[0][3] </args>
        <args> w[0][4] d[0][4] </args>
        <args> w[0][5] d[0][5] </args>
        <args> w[0][6] d[0][6] </args>
        <args> w[0][7] d[0][7] </args>
        <args> w[0][8] d[0][8] </args>
        <args> w[0][9] d[0][9] </args>
        <args> w[0][10] d[0][10] </args>
        <args> w[0][11] d[0][11] </args>
        <args> w[0][12] d[0][12] </args>
        <args> w[0][13] d[0][13] </args>
        <args> w[0][14] d[0][14] </args>
      </group>
      <group>
        <extension>
          <list> %0 %1 </list>
          <supports> (0,6)(1,80)(2,83)(3,73)(4,25)(5,77)(6,72)(7,23)(8,40)(9,18)(10,57)(11,51)(12,36)(13,23)(14,71) </supports>
        </extension>
        <args> w[1][0] d[1][0] </args>
        <args> w[1][1] d[1][1] </args>
        <args> w[1][2] d[1][2] </args>
        <args> w[1][3] d[1][3] </args>
        <args> w[1][4] d[1][4] </args>
        <args> w[1][5] d[1][5] </args>
        <args> w[1][6] d[1][6] </args>
        <args> w[1][7] d[1][7] </args>
        <args> w[1][8] d[1][8] </args>
        <args> w[1][9] d[1][9] </args>
        <args> w[1][10] d[1][10] </args>
        <args> w[1][11] d[1][11] </args>
        <args> w[1][12] d[1][12] </args>
        <args> w[1][13] d[1][13] </args>
        <args> w[1][14] d[1][14] </args>
      </group>
      <group>
        <extension>
          <list> %0 %1 </list>
          <supports> (0,16)(1,47)(2,81)(3,68)(4,85)(5,32)(6,85)(7,86)(8,9)(9,58)(10,78)(11,65)(12,56)(13,38)(14,81) </supports>
        </extension>
        <args> w[2][0] d[2][0] </args>
        <args> w[2][1] d[2][1] </args>
        <args> w[2][2] d[2][2] </args>
        <args> w[2][3] d[2][3] </args>
        <args> w[2][4] d[2][4] </args>
        <args> w[2][5] d[2][5] </args>
        <args> w[2][6] d[2][6] </args>
        <args> w[2][7] d[2][7] </args>
        <args> w[2][8] d[2][8] </args>
        <args> w[2][9] d[2][9] </args>
        <args> w[2][10] d[2][10] </args>
        <args> w[2][11] d[2][11] </args>
        <args> w[2][12] d[2][12] </args>
        <args> w[2][13] d[2][13] </args>
        <args> w[2][14] d[2][14] </args>
      </group>
      <group>
        <extension>
          <list> %0 %1 </list>
          <supports> (0,29)(1,65)(2,58)(3,70)(4,72)(5,39)(6,42)(7,22)(8,99)(9,82)(10,54)(11,70)(12,47)(13,78)(14,97) </supports>
        </extension>
        <args> w[3][0] d[3][0] </args>
        <args> w[3][1] d[3][1] </args>
        <args> w[3][2] d[3][2] </args>
        <args> w[3][3] d[3][3] </args>
        <args> w[3][4] d[3][4] </args>
        <args> w[3][5] d[3][5] </args>
        <args> w[3][6] d[3][6] </args>
        <args> w[3][7] d[3][7] </args>
        <args> w[3][8] d[3][8] </args>
        <args> w[3][9] d[3][9] </args>
        <args> w[3][10] d[3][10] </args>
        <args> w[3][11] d[3][11] </args>
        <args> w[3][12] d[3][12] </args>
        <args> w[3][13] d[3][13] </args>
        <args> w[3][14] d[3][14] </args>
      </group>
      <group>
        <extension>
          <list> %0 %1 </list>
          <supports> (0,93)(1,24)(2,78)(3,5)(4,43)(5,43)(6,27)(7,35)(8,33)(9,58)(10,60)(11,38)(12,88)(13,79)(14,70) </supports>
        </extension>
        <args> w[4][0] d[4][0] </args>
        <args> w[4][1] d[4][1] </args>
        <args> w[4][2] d[4][2] </args>
        <args> w[4][3] d[4][3] </args>
        <args> w[4][4] d[4][4] </args>
        <args> w[4][5] d[4][5] </args>
        <args> w[4][6] d[4][6] </args>
        <args> w[4][7] d[4][7] </args>
        <args> w[4][8] d[4][8] </args>
        <args> w[4][9] d[4][9] </args>
        <args> w[4][10] d[4][10] </args>
        <args> w[4][11] d[4][11] </args>
        <args> w[4][12] d[4][12] </args>
        <args> w[4][13] d[4][13] </args>
        <args> w[4][14] d[4][14] </args>
      </group>
      <group>
        <extension>
          <list> %0 %1 </list>
          <supports> (0,19)(1,36)(2,48)(3,82)(4,11)(5,48)(6,16)(7,63)(8,42)(9,75)(10,55)(11,42)(12,72)(13,15)(14,67) </supports>
        </extension>
        <args> w[5][0] d[5][0] </args>
        <args> w[5][1] d[5][1] </args>
        <args> w[5][2] d[5][2] </args>
        <args> w[5][3] d[5][3] </args>
        <args> w[5][4] d[5][4] </args>
        <args> w[5][5] d[5][5] </args>
        <args> w[5][6] d[5][6] </args>
        <args> w[5][7] d[5][7] </args>
        <args> w[5][8] d[5][8] </args>
        <args> w[5][9] d[5][9] </args>
        <args> w[5][10] d[5][10] </args>
        <args> w[5][11] d[5][11] </args>
        <args> w[5][12] d[5][12] </args>
        <args> w[5][13] d[5][13] </args>
        <args> w[5][14] d[5][14] </args>
      </group>
      <group>
        <extension>
          <list> %0 %1 </list>
          <supports> (0,40)(1,61)(2,56)(3,62)(4,56)(5,94)(6,6)(7,3)(8,72)(9,29)(10,10)(11,40)(12,51)(13,43)(14,33) </supports>
        </extension>
        <args> w[6][0] d[6][0] </args>
        <args> w[6][1] d[6][1] </args>
        <args> w[6][2] d[6][2] </args>
        <args> w[6][3] d[6][3] </args>
        <args> w[6][4] d[6][4] </args>
        <args> w[6][5] d[6][5] </args>
        <args> w[6][6] d[6][6] </args>
        <args> w[6][7] d[6][7] </args>
        <args> w[6][8] d[6][8] </args>
        <args> w[6][9] d[6][9] </args>
        <args> w[6][10] d[6][10] </args>
        <args> w[6][11] d[6][11] </args>
        <args> w[6][12] d[6][12] </args>
        <args> w[6][13] d[6][13] </args>
        <args> w[6][14] d[6][14] </args>
      </group>
      <group>
        <extension>
          <list> %0 %1 </list>
          <supports> (0,10)(1,18)(2,34)(3,90)(4,65)(5,60)(6,39)(7,86)(8,74)(9,80)(10,22)(11,1)(12,4)(13,82)(14,23) </supports>
        </extension>
        <args> w[7][0] d[7][0] </args>
        <args> w[7][1] d[7][1] </args>
        <args> w[7][2] d[7][2] </args>
        <args> w[7][3] d[7][3] </args>
        <args> w[7][4] d[7][4] </args>
        <args> w[7][5] d[7][5] </args>
        <args> w[7][6] d[7][6] </args>
        <args> w[7][7] d[7][7] </args>
        <args> w[7][8] d[7][8] </args>
        <args> w[7][9] d[7][9] </args>
        <args> w[7][10] d[7][10] </args>
        <args> w[7][11] d[7][11] </args>
        <args> w[7][12] d[7][12] </args>
        <args> w[7][13] d[7][13] </args>
        <args> w[7][14] d[7][14] </args>
      </group>
      <group>
        <extension>
          <list> %0 %1 </list>
          <supports> (0,41)(1,18)(2,76)(3,19)(4,2)(5,27)(6,33)(7,55)(8,60)(9,51)(10,56)(11,82)(12,25)(13,80)(14,47) </supports>
        </extension>
        <args> w[8][0] d[8][0] </args>
        <args> w[8][1] d[8][1] </args>
        <args> w[8][2] d[8][2] </args>
        <args> w[8][3] d[8][3] </args>
        <args> w[8][4] d[8][4] </args>
        <args> w[8][5] d[8][5] </args>
        <args> w[8][6] d[8][6] </args>
        <args> w[8][7] d[8][7] </args>
        <args> w[8][8] d[8][8] </args>
        <args> w[8][9] d[8][9] </args>
        <args> w[8][10] d[8][10] </args>
        <args> w[8][11] d[8][11] </args>
        <args> w[8][12] d[8][12] </args>
        <args> w[8][13] d[8][13] </args>
        <args> w[8][14] d[8][14] </args>
      </group>
      <group>
        <extension>
          <list> %0 %1 </list>
          <supports> (0,55)(1,33)(2,6)(3,82)(4,24)(5,59)(6,69)(7,44)(8,66)(9,36)(10,82)(11,53)(12,96)(13,44)(14,25) </supports>
        </extension>
        <args> w[9][0] d[9][0] </args>
        <args> w[9][1] d[9][1] </args>
        <args> w[9][2] d[9][2] </args>
        <args> w[9][3] d[9][3] </args>
        <args> w[9][4] d[9][4] </args>
        <args> w[9][5] d[9][5] </args>
        <args> w[9][6] d[9][6] </args>
        <args> w[9][7] d[9][7] </args>
        <args> w[9][8] d[9][8] </args>
        <args> w[9][9] d[9][9] </args>
        <args> w[9][10] d[9][10] </args>
        <args> w[9][11] d[9][11] </args>
        <args> w[9][12] d[9][12] </args>
        <args> w[9][13] d[9][13] </args>
        <args> w[9][14] d[9][14] </args>
      </group>
      <group>
        <extension>
          <list> %0 %1 </list>
          <supports> (0,73)(1,55)(2,36)(3,8)(4,78)(5,8)(6,50)(7,82)(8,9)(9,84)(10,35)(11,60)(12,98)(13,35)(14,59) </supports>
        </extension>
        <args> w[10][0] d[10][0] </args>
        <args> w[10][1] d[10][1] </args>
        <args> w[10][2] d[10][2] </args>
        <args> w[10][3] d[10][3] </args>
        <args> w[10][4] d[10][4] </args>
        <args> w[10][5] d[10][5] </args>
        <args> w[10][6] d[10][6] </args>
        <args> w[10][7] d[10][7] </args>
        <args> w[10][8] d[10][8] </args>
        <args> w[10][9] d[10][9] </args>
        <args> w[10][10] d[10][10] </args>
        <args> w[10][11] d[10][11] </args>
        <args> w[10][12] d[10][12] </args>
        <args> w[10][13] d[10][13] </args>
        <args> w[10][14] d[10][14] </args>
      </group>
      <group>
        <extension>
          <list> %0 %1 </list>
          <supports> (0,44)(1,66)(2,77)(3,51)(4,59)(5,28)(6,48)(7,17)(8,44)(9,86)(10,26)(11,38)(12,23)(13,20)(14,39) </supports>
        </extension>
        <args> w[11][0] d[11][0] </args>
        <args> w[11][1] d[11][1] </args>
        <args> w[11][2] d[11][2] </args>
        <args> w[11][3] d[11][3] </args>
        <args> w[11][4] d[11][4] </args>
        <args> w[11][5] d[11][5] </args>
        <args> w[11][6] d[11][6] </args>
        <args> w[11][7] d[11][7] </args>
        <args> w[11][8] d[11][8] </args>
        <args> w[11][9] d[11][9] </args>
        <args> w[11][10] d[11][10] </args>
        <args> w[11][11] d[11][11] </args>
        <args> w[11][12] d[11][12] </args>
        <args> w[11][13] d[11][13] </args>
        <args> w[11][14] d[11][14] </args>
      </group>
      <group>
        <extension>
          <list> %0 %1 </list>
          <supports> (0,65)(1,70)(2,7)(3,75)(4,63)(5,58)(6,67)(7,3)(8,68)(9,84)(10,64)(11,80)(12,23)(13,89)(14,98) </supports>
        </extension>
        <args> w[12][0] d[12][0] </args>
        <args> w[12][1] d[12][1] </args>
        <args> w[12][2] d[12][2] </args>
        <args> w[12][3] d[12][3] </args>
        <args> w[12][4] d[12][4] </args>
        <args> w[12][5] d[12][5] </args>
        <args> w[12][6] d[12][6] </args>
        <args> w[12][7] d[12][7] </args>
        <args> w[12][8] d[12][8] </args>
        <args> w[12][9] d[12][9] </args>
        <args> w[12][10] d[12][10] </args>
        <args> w[12][11] d[12][11] </args>
        <args> w[12][12] d[12][12] </args>
        <args> w[12][13] d[12][13] </args>
        <args> w[12][14] d[12][14] </args>
      </group>
      <group>
        <extension>
          <list> %0 %1 </list>
          <supports> (0,5)(1,58)(2,14)(3,84)(4,20)(5,16)(6,40)(7,78)(8,51)(9,86)(10,79)(11,5)(12,32)(13,57)(14,83) </supports>
        </extension>
        <args> w[13][0] d[13][0] </args>
        <args> w[13][1] d[13][1] </args>
        <args> w[13][2] d[13][2] </args>
        <args> w[13][3] d[13][3] </args>
        <args> w[13][4] d[13][4] </args>
        <args> w[13][5] d[13][5] </args>
        <args> w[13][6] d[13][6] </args>
        <args> w[13][7] d[13][7] </args>
        <args> w[13][8] d[13][8] </args>
        <args> w[13][9] d[13][9] </args>
        <args> w[13][10] d[13][10] </args>
        <args> w[13][11] d[13][11] </args>
        <args> w[13][12] d[13][12] </args>
        <args> w[13][13] d[13][13] </args>
        <args> w[13][14] d[13][14] </args>
      </group>
      <group>
        <extension>
          <list> %0 %1 </list>
          <supports> (0,21)(1,94)(2,41)(3,79)(4,65)(5,88)(6,40)(7,13)(8,72)(9,91)(10,4)(11,26)(12,23)(13,86)(14,17) </supports>
        </extension>
        <args> w[14][0] d[14][0] </args>
        <args> w[14][1] d[14][1] </args>
        <args> w[14][2] d[14][2] </args>
        <args> w[14][3] d[14][3] </args>
        <args> w[14][4] d[14][4] </args>
        <args> w[14][5] d[14][5] </args>
        <args> w[14][6] d[14][6] </args>
        <args> w[14][7] d[14][7] </args>
        <args> w[14][8] d[14][8] </args>
        <args> w[14][9] d[14][9] </args>
        <args> w[14][10] d[14][10] </args>
        <args> w[14][11] d[14][11] </args>
        <args> w[14][12] d[14][12] </args>
        <args> w[14][13] d[14][13] </args>
        <args> w[14][14] d[14][14] </args>
      </group>
    </block>
    <group>
      <intension> le(add(%0,%1),%2) </intension>
      <args> s[0][0] d[0][0] s[0][1] </args>
      <args> s[0][1] d[0][1] s[0][2] </args>
      <args> s[0][2] d[0][2] s[0][3] </args>
      <args> s[0][3] d[0][3] s[0][4] </args>
      <args> s[0][4] d[0][4] s[0][5] </args>
      <args> s[0][5] d[0][5] s[0][6] </args>
      <args> s[0][6] d[0][6] s[0][7] </args>
      <args> s[0][7] d[0][7] s[0][8] </args>
      <args> s[0][8] d[0][8] s[0][9] </args>
      <args> s[0][9] d[0][9] s[0][10] </args>
      <args> s[0][10] d[0][10] s[0][11] </args>
      <args> s[0][11] d[0][11] s[0][12] </args>
      <args> s[0][12] d[0][12] s[0][13] </args>
      <args> s[0][13] d[0][13] s[0][14] </args>
      <args> s[1][0] d[1][0] s[1][1] </args>
      <args> s[1][1] d[1][1] s[1][2] </args>
      <args> s[1][2] d[1][2] s[1][3] </args>
      <args> s[1][3] d[1][3] s[1][4] </args>
      <args> s[1][4] d[1][4] s[1][5] </args>
      <args> s[1][5] d[1][5] s[1][6] </args>
      <args> s[1][6] d[1][6] s[1][7] </args>
      <args> s[1][7] d[1][7] s[1][8] </args>
      <args> s[1][8] d[1][8] s[1][9] </args>
      <args> s[1][9] d[1][9] s[1][10] </args>
      <args> s[1][10] d[1][10] s[1][11] </args>
      <args> s[1][11] d[1][11] s[1][12] </args>
      <args> s[1][12] d[1][12] s[1][13] </args>
      <args> s[1][13] d[1][13] s[1][14] </args>
      <args> s[2][0] d[2][0] s[2][1] </args>
      <args> s[2][1] d[2][1] s[2][2] </args>
      <args> s[2][2] d[2][2] s[2][3] </args>
      <args> s[2][3] d[2][3] s[2][4] </args>
      <args> s[2][4] d[2][4] s[2][5] </args>
      <args> s[2][5] d[2][5] s[2][6] </args>
      <args> s[2][6] d[2][6] s[2][7] </args>
      <args> s[2][7] d[2][7] s[2][8] </args>
      <args> s[2][8] d[2][8] s[2][9] </args>
      <args> s[2][9] d[2][9] s[2][10] </args>
      <args> s[2][10] d[2][10] s[2][11] </args>
      <args> s[2][11] d[2][11] s[2][12] </args>
      <args> s[2][12] d[2][12] s[2][13] </args>
      <args> s[2][13] d[2][13] s[2][14] </args>
      <args> s[3][0] d[3][0] s[3][1] </args>
      <args> s[3][1] d[3][1] s[3][2] </args>
      <args> s[3][2] d[3][2] s[3][3] </args>
      <args> s[3][3] d[3][3] s[3][4] </args>
      <args> s[3][4] d[3][4] s[3][5] </args>
      <args> s[3][5] d[3][5] s[3][6] </args>
      <args> s[3][6] d[3][6] s[3][7] </args>
      <args> s[3][7] d[3][7] s[3][8] </args>
      <args> s[3][8] d[3][8] s[3][9] </args>
      <args> s[3][9] d[3][9] s[3][10] </args>
      <args> s[3][10] d[3][10] s[3][11] </args>
      <args> s[3][11] d[3][11] s[3][12] </args>
      <args> s[3][12] d[3][12] s[3][13] </args>
      <args> s[3][13] d[3][13] s[3][14] </args>
      <args> s[4][0] d[4][0] s[4][1] </args>
      <args> s[4][1] d[4][1] s[4][2] </args>
      <args> s[4][2] d[4][2] s[4][3] </args>
      <args> s[4][3] d[4][3] s[4][4] </args>
      <args> s[4][4] d[4][4] s[4][5] </args>
      <args> s[4][5] d[4][5] s[4][6] </args>
      <args> s[4][6] d[4][6] s[4][7] </args>
      <args> s[4][7] d[4][7] s[4][8] </args>
      <args> s[4][8] d[4][8] s[4][9] </args>
      <args> s[4][9] d[4][9] s[4][10] </args>
      <args> s[4][10] d[4][10] s[4][11] </args>
      <args> s[4][11] d[4][11] s[4][12] </args>
      <args> s[4][12] d[4][12] s[4][13] </args>
      <args> s[4][13] d[4][13] s[4][14] </args>
      <args> s[5][0] d[5][0] s[5][1] </args>
      <args> s[5][1] d[5][1] s[5][2] </args>
      <args> s[5][2] d[5][2] s[5][3] </args>
      <args> s[5][3] d[5][3] s[5][4] </args>
      <args> s[5][4] d[5][4] s[5][5] </args>
      <args> s[5][5] d[5][5] s[5][6] </args>
      <args> s[5][6] d[5][6] s[5][7] </args>
      <args> s[5][7] d[5][7] s[5][8] </args>
      <args> s[5][8] d[5][8] s[5][9] </args>
      <args> s[5][9] d[5][9] s[5][10] </args>
      <args> s[5][10] d[5][10] s[5][11] </args>
      <args> s[5][11] d[5][11] s[5][12] </args>
      <args> s[5][12] d[5][12] s[5][13] </args>
      <args> s[5][13] d[5][13] s[5][14] </args>
      <args> s[6][0] d[6][0] s[6][1] </args>
      <args> s[6][1] d[6][1] s[6][2] </args>
      <args> s[6][2] d[6][2] s[6][3] </args>
      <args> s[6][3] d[6][3] s[6][4] </args>
      <args> s[6][4] d[6][4] s[6][5] </args>
      <args> s[6][5] d[6][5] s[6][6] </args>
      <args> s[6][6] d[6][6] s[6][7] </args>
      <args> s[6][7] d[6][7] s[6][8] </args>
      <args> s[6][8] d[6][8] s[6][9] </args>
      <args> s[6][9] d[6][9] s[6][10] </args>
      <args> s[6][10] d[6][10] s[6][11] </args>
      <args> s[6][11] d[6][11] s[6][12] </args>
      <args> s[6][12] d[6][12] s[6][13] </args>
      <args> s[6][13] d[6][13] s[6][14] </args>
      <args> s[7][0] d[7][0] s[7][1] </args>
      <args> s[7][1] d[7][1] s[7][2] </args>
      <args> s[7][2] d[7][2] s[7][3] </args>
      <args> s[7][3] d[7][3] s[7][4] </args>
      <args> s[7][4] d[7][4] s[7][5] </args>
      <args> s[7][5] d[7][5] s[7][6] </args>
      <args> s[7][6] d[7][6] s[7][7] </args>
      <args> s[7][7] d[7][7] s[7][8] </args>
      <args> s[7][8] d[7][8] s[7][9] </args>
      <args> s[7][9] d[7][9] s[7][10] </args>
      <args> s[7][10] d[7][10] s[7][11] </args>
      <args> s[7][11] d[7][11] s[7][12] </args>
      <args> s[7][12] d[7][12] s[7][13] </args>
      <args> s[7][13] d[7][13] s[7][14] </args>
      <args> s[8][0] d[8][0] s[8][1] </args>
      <args> s[8][1] d[8][1] s[8][2] </args>
      <args> s[8][2] d[8][2] s[8][3] </args>
      <args> s[8][3] d[8][3] s[8][4] </args>
      <args> s[8][4] d[8][4] s[8][5] </args>
      <args> s[8][5] d[8][5] s[8][6] </args>
      <args> s[8][6] d[8][6] s[8][7] </args>
      <args> s[8][7] d[8][7] s[8][8] </args>
      <args> s[8][8] d[8][8] s[8][9] </args>
      <args> s[8][9] d[8][9] s[8][10] </args>
      <args> s[8][10] d[8][10] s[8][11] </args>
      <args> s[8][11] d[8][11] s[8][12] </args>
      <args> s[8][12] d[8][12] s[8][13] </args>
      <args> s[8][13] d[8][13] s[8][14] </args>
      <args> s[9][0] d[9][0] s[9][1] </args>
      <args> s[9][1] d[9][1] s[9][2] </args>
      <args> s[9][2] d[9][2] s[9][3] </args>
      <args> s[9][3] d[9][3] s[9][4] </args>
      <args> s[9][4] d[9][4] s[9][5] </args>
      <args> s[9][5] d[9][5] s[9][6] </args>
      <args> s[9][6] d[9][6] s[9][7] </args>
      <args> s[9][7] d[9][7] s[9][8] </args>
      <args> s[9][8] d[9][8] s[9][9] </args>
      <args> s[9][9] d[9][9] s[9][10] </args>
      <args> s[9][10] d[9][10] s[9][11] </args>
      <args> s[9][11] d[9][11] s[9][12] </args>
      <args> s[9][12] d[9][12] s[9][13] </args>
      <args> s[9][13] d[9][13] s[9][14] </args>
      <args> s[10][0] d[10][0] s[10][1] </args>
      <args> s[10][1] d[10][1] s[10][2] </args>
      <args> s[10][2] d[10][2] s[10][3] </args>
      <args> s[10][3] d[10][3] s[10][4] </args>
      <args> s[10][4] d[10][4] s[10][5] </args>
      <args> s[10][5] d[10][5] s[10][6] </args>
      <args> s[10][6] d[10][6] s[10][7] </args>
      <args> s[10][7] d[10][7] s[10][8] </args>
      <args> s[10][8] d[10][8] s[10][9] </args>
      <args> s[10][9] d[10][9] s[10][10] </args>
      <args> s[10][10] d[10][10] s[10][11] </args>
      <args> s[10][11] d[10][11] s[10][12] </args>
      <args> s[10][12] d[10][12] s[10][13] </args>
      <args> s[10][13] d[10][13] s[10][14] </args>
      <args> s[11][0] d[11][0] s[11][1] </args>
      <args> s[11][1] d[11][1] s[11][2] </args>
      <args> s[11][2] d[11][2] s[11][3] </args>
      <args> s[11][3] d[11][3] s[11][4] </args>
      <args> s[11][4] d[11][4] s[11][5] </args>
      <args> s[11][5] d[11][5] s[11][6] </args>
      <args> s[11][6] d[11][6] s[11][7] </args>
      <args> s[11][7] d[11][7] s[11][8] </args>
      <args> s[11][8] d[11][8] s[11][9] </args>
      <args> s[11][9] d[11][9] s[11][10] </args>
      <args> s[11][10] d[11][10] s[11][11] </args>
      <args> s[11][11] d[11][11] s[11][12] </args>
      <args> s[11][12] d[11][12] s[11][13] </args>
      <args> s[11][13] d[11][13] s[11][14] </args>
      <args> s[12][0] d[12][0] s[12][1] </args>
      <args> s[12][1] d[12][1] s[12][2] </args>
      <args> s[12][2] d[12][2] s[12][3] </args>
      <args> s[12][3] d[12][3] s[12][4] </args>
      <args> s[12][4] d[12][4] s[12][5] </args>
      <args> s[12][5] d[12][5] s[12][6] </args>
      <args> s[12][6] d[12][6] s[12][7] </args>
      <args> s[12][7] d[12][7] s[12][8] </args>
      <args> s[12][8] d[12][8] s[12][9] </args>
      <args> s[12][9] d[12][9] s[12][10] </args>
      <args> s[12][10] d[12][10] s[12][11] </args>
      <args> s[12][11] d[12][11] s[12][12] </args>
      <args> s[12][12] d[12][12] s[12][13] </args>
      <args> s[12][13] d[12][13] s[12][14] </args>
      <args> s[13][0] d[13][0] s[13][1] </args>
      <args> s[13][1] d[13][1] s[13][2] </args>
      <args> s[13][2] d[13][2] s[13][3] </args>
      <args> s[13][3] d[13][3] s[13][4] </args>
      <args> s[13][4] d[13][4] s[13][5] </args>
      <args> s[13][5] d[13][5] s[13][6] </args>
      <args> s[13][6] d[13][6] s[13][7] </args>
      <args> s[13][7] d[13][7] s[13][8] </args>
      <args> s[13][8] d[13][8] s[13][9] </args>
      <args> s[13][9] d[13][9] s[13][10] </args>
      <args> s[13][10] d[13][10] s[13][11] </args>
      <args> s[13][11] d[13][11] s[13][12] </args>
      <args> s[13][12] d[13][12] s[13][13] </args>
      <args> s[13][13] d[13][13] s[13][14] </args>
      <args> s[14][0] d[14][0] s[14][1] </args>
      <args> s[14][1] d[14][1] s[14][2] </args>
      <args> s[14][2] d[14][2] s[14][3] </args>
      <args> s[14][3] d[14][3] s[14][4] </args>
      <args> s[14][4] d[14][4] s[14][5] </args>
      <args> s[14][5] d[14][5] s[14][6] </args>
      <args> s[14][6] d[14][6] s[14][7] </args>
      <args> s[14][7] d[14][7] s[14][8] </args>
      <args> s[14][8] d[14][8] s[14][9] </args>
      <args> s[14][9] d[14][9] s[14][10] </args>
      <args> s[14][10] d[14][10] s[14][11] </args>
      <args> s[14][11] d[14][11] s[14][12] </args>
      <args> s[14][12] d[14][12] s[14][13] </args>
      <args> s[14][13] d[14][13] s[14][14] </args>
    </group>
    <block class="channeling">
      <group>
        <element>
          <list> sd[0][] </list>
          <index> %0 </index>
          <value> %1 </value>
        </element>
        <args> w[0][0] s[0][0] </args>
        <args> w[0][1] s[0][1] </args>
        <args> w[0][2] s[0][2] </args>
        <args> w[0][3] s[0][3] </args>
        <args> w[0][4] s[0][4] </args>
        <args> w[0][5] s[0][5] </args>
        <args> w[0][6] s[0][6] </args>
        <args> w[0][7] s[0][7] </args>
        <args> w[0][8] s[0][8] </args>
        <args> w[0][9] s[0][9] </args>
        <args> w[0][10] s[0][10] </args>
        <args> w[0][11] s[0][11] </args>
        <args> w[0][12] s[0][12] </args>
        <args> w[0][13] s[0][13] </args>
        <args> w[0][14] s[0][14] </args>
      </group>
      <group>
        <element>
          <list> sd[1][] </list>
          <index> %0 </index>
          <value> %1 </value>
        </element>
        <args> w[1][0] s[1][0] </args>
        <args> w[1][1] s[1][1] </args>
        <args> w[1][2] s[1][2] </args>
        <args> w[1][3] s[1][3] </args>
        <args> w[1][4] s[1][4] </args>
        <args> w[1][5] s[1][5] </args>
        <args> w[1][6] s[1][6] </args>
        <args> w[1][7] s[1][7] </args>
        <args> w[1][8] s[1][8] </args>
        <args> w[1][9] s[1][9] </args>
        <args> w[1][10] s[1][10] </args>
        <args> w[1][11] s[1][11] </args>
        <args> w[1][12] s[1][12] </args>
        <args> w[1][13] s[1][13] </args>
        <args> w[1][14] s[1][14] </args>
      </group>
      <group>
        <element>
          <list> sd[2][] </list>
          <index> %0 </index>
          <value> %1 </value>
        </element>
        <args> w[2][0] s[2][0] </args>
        <args> w[2][1] s[2][1] </args>
        <args> w[2][2] s[2][2] </args>
        <args> w[2][3] s[2][3] </args>
        <args> w[2][4] s[2][4] </args>
        <args> w[2][5] s[2][5] </args>
        <args> w[2][6] s[2][6] </args>
        <args> w[2][7] s[2][7] </args>
        <args> w[2][8] s[2][8] </args>
        <args> w[2][9] s[2][9] </args>
        <args> w[2][10] s[2][10] </args>
        <args> w[2][11] s[2][11] </args>
        <args> w[2][12] s[2][12] </args>
        <args> w[2][13] s[2][13] </args>
        <args> w[2][14] s[2][14] </args>
      </group>
      <group>
        <element>
          <list> sd[3][] </list>
          <index> %0 </index>
          <value> %1 </value>
        </element>
        <args> w[3][0] s[3][0] </args>
        <args> w[3][1] s[3][1] </args>
        <args> w[3][2] s[3][2] </args>
        <args> w[3][3] s[3][3] </args>
        <args> w[3][4] s[3][4] </args>
        <args> w[3][5] s[3][5] </args>
        <args> w[3][6] s[3][6] </args>
        <args> w[3][7] s[3][7] </args>
        <args> w[3][8] s[3][8] </args>
        <args> w[3][9] s[3][9] </args>
        <args> w[3][10] s[3][10] </args>
        <args> w[3][11] s[3][11] </args>
        <args> w[3][12] s[3][12] </args>
        <args> w[3][13] s[3][13] </args>
        <args> w[3][14] s[3][14] </args>
      </group>
      <group>
        <element>
          <list> sd[4][] </list>
          <index> %0 </index>
          <value> %1 </value>
        </element>
        <args> w[4][0] s[4][0] </args>
        <args> w[4][1] s[4][1] </args>
        <args> w[4][2] s[4][2] </args>
        <args> w[4][3] s[4][3] </args>
        <args> w[4][4] s[4][4] </args>
        <args> w[4][5] s[4][5] </args>
        <args> w[4][6] s[4][6] </args>
        <args> w[4][7] s[4][7] </args>
        <args> w[4][8] s[4][8] </args>
        <args> w[4][9] s[4][9] </args>
        <args> w[4][10] s[4][10] </args>
        <args> w[4][11] s[4][11] </args>
        <args> w[4][12] s[4][12] </args>
        <args> w[4][13] s[4][13] </args>
        <args> w[4][14] s[4][14] </args>
      </group>
      <group>
        <element>
          <list> sd[5][] </list>
          <index> %0 </index>
          <value> %1 </value>
        </element>
        <args> w[5][0] s[5][0] </args>
        <args> w[5][1] s[5][1] </args>
        <args> w[5][2] s[5][2] </args>
        <args> w[5][3] s[5][3] </args>
        <args> w[5][4] s[5][4] </args>
        <args> w[5][5] s[5][5] </args>
        <args> w[5][6] s[5][6] </args>
        <args> w[5][7] s[5][7] </args>
        <args> w[5][8] s[5][8] </args>
        <args> w[5][9] s[5][9] </args>
        <args> w[5][10] s[5][10] </args>
        <args> w[5][11] s[5][11] </args>
        <args> w[5][12] s[5][12] </args>
        <args> w[5][13] s[5][13] </args>
        <args> w[5][14] s[5][14] </args>
      </group>
      <group>
        <element>
          <list> sd[6][] </list>
          <index> %0 </index>
          <value> %1 </value>
        </element>
        <args> w[6][0] s[6][0] </args>
        <args> w[6][1] s[6][1] </args>
        <args> w[6][2] s[6][2] </args>
        <args> w[6][3] s[6][3] </args>
        <args> w[6][4] s[6][4] </args>
        <args> w[6][5] s[6][5] </args>
        <args> w[6][6] s[6][6] </args>
        <args> w[6][7] s[6][7] </args>
        <args> w[6][8] s[6][8] </args>
        <args> w[6][9] s[6][9] </args>
        <args> w[6][10] s[6][10] </args>
        <args> w[6][11] s[6][11] </args>
        <args> w[6][12] s[6][12] </args>
        <args> w[6][13] s[6][13] </args>
        <args> w[6][14] s[6][14] </args>
      </group>
      <group>
        <element>
          <list> sd[7][] </list>
          <index> %0 </index>
          <value> %1 </value>
        </element>
        <args> w[7][0] s[7][0] </args>
        <args> w[7][1] s[7][1] </args>
        <args> w[7][2] s[7][2] </args>
        <args> w[7][3] s[7][3] </args>
        <args> w[7][4] s[7][4] </args>
        <args> w[7][5] s[7][5] </args>
        <args> w[7][6] s[7][6] </args>
        <args> w[7][7] s[7][7] </args>
        <args> w[7][8] s[7][8] </args>
        <args> w[7][9] s[7][9] </args>
        <args> w[7][10] s[7][10] </args>
        <args> w[7][11] s[7][11] </args>
        <args> w[7][12] s[7][12] </args>
        <args> w[7][13] s[7][13] </args>
        <args> w[7][14] s[7][14] </args>
      </group>
      <group>
        <element>
          <list> sd[8][] </list>
          <index> %0 </index>
          <value> %1 </value>
        </element>
        <args> w[8][0] s[8][0] </args>
        <args> w[8][1] s[8][1] </args>
        <args> w[8][2] s[8][2] </args>
        <args> w[8][3] s[8][3] </args>
        <args> w[8][4] s[8][4] </args>
        <args> w[8][5] s[8][5] </args>
        <args> w[8][6] s[8][6] </args>
        <args> w[8][7] s[8][7] </args>
        <args> w[8][8] s[8][8] </args>
        <args> w[8][9] s[8][9] </args>
        <args> w[8][10] s[8][10] </args>
        <args> w[8][11] s[8][11] </args>
        <args> w[8][12] s[8][12] </args>
        <args> w[8][13] s[8][13] </args>
        <args> w[8][14] s[8][14] </args>
      </group>
      <group>
        <element>
          <list> sd[9][] </list>
          <index> %0 </index>
          <value> %1 </value>
        </element>
        <args> w[9][0] s[9][0] </args>
        <args> w[9][1] s[9][1] </args>
        <args> w[9][2] s[9][2] </args>
        <args> w[9][3] s[9][3] </args>
        <args> w[9][4] s[9][4] </args>
        <args> w[9][5] s[9][5] </args>
        <args> w[9][6] s[9][6] </args>
        <args> w[9][7] s[9][7] </args>
        <args> w[9][8] s[9][8] </args>
        <args> w[9][9] s[9][9] </args>
        <args> w[9][10] s[9][10] </args>
        <args> w[9][11] s[9][11] </args>
        <args> w[9][12] s[9][12] </args>
        <args> w[9][13] s[9][13] </args>
        <args> w[9][14] s[9][14] </args>
      </group>
      <group>
        <element>
          <list> sd[10][] </list>
          <index> %0 </index>
          <value> %1 </value>
        </element>
        <args> w[10][0] s[10][0] </args>
        <args> w[10][1] s[10][1] </args>
        <args> w[10][2] s[10][2] </args>
        <args> w[10][3] s[10][3] </args>
        <args> w[10][4] s[10][4] </args>
        <args> w[10][5] s[10][5] </args>
        <args> w[10][6] s[10][6] </args>
        <args> w[10][7] s[10][7] </args>
        <args> w[10][8] s[10][8] </args>
        <args> w[10][9] s[10][9] </args>
        <args> w[10][10] s[10][10] </args>
        <args> w[10][11] s[10][11] </args>
        <args> w[10][12] s[10][12] </args>
        <args> w[10][13] s[10][13] </args>
        <args> w[10][14] s[10][14] </args>
      </group>
      <group>
        <element>
          <list> sd[11][] </list>
          <index> %0 </index>
          <value> %1 </value>
        </element>
        <args> w[11][0] s[11][0] </args>
        <args> w[11][1] s[11][1] </args>
        <args> w[11][2] s[11][2] </args>
        <args> w[11][3] s[11][3] </args>
        <args> w[11][4] s[11][4] </args>
        <args> w[11][5] s[11][5] </args>
        <args> w[11][6] s[11][6] </args>
        <args> w[11][7] s[11][7] </args>
        <args> w[11][8] s[11][8] </args>
        <args> w[11][9] s[11][9] </args>
        <args> w[11][10] s[11][10] </args>
        <args> w[11][11] s[11][11] </args>
        <args> w[11][12] s[11][12] </args>
        <args> w[11][13] s[11][13] </args>
        <args> w[11][14] s[11][14] </args>
      </group>
      <group>
        <element>
          <list> sd[12][] </list>
          <index> %0 </index>
          <value> %1 </value>
        </element>
        <args> w[12][0] s[12][0] </args>
        <args> w[12][1] s[12][1] </args>
        <args> w[12][2] s[12][2] </args>
        <args> w[12][3] s[12][3] </args>
        <args> w[12][4] s[12][4] </args>
        <args> w[12][5] s[12][5] </args>
        <args> w[12][6] s[12][6] </args>
        <args> w[12][7] s[12][7] </args>
        <args> w[12][8] s[12][8] </args>
        <args> w[12][9] s[12][9] </args>
        <args> w[12][10] s[12][10] </args>
        <args> w[12][11] s[12][11] </args>
        <args> w[12][12] s[12][12] </args>
        <args> w[12][13] s[12][13] </args>
        <args> w[12][14] s[12][14] </args>
      </group>
      <group>
        <element>
          <list> sd[13][] </list>
          <index> %0 </index>
          <value> %1 </value>
        </element>
        <args> w[13][0] s[13][0] </args>
        <args> w[13][1] s[13][1] </args>
        <args> w[13][2] s[13][2] </args>
        <args> w[13][3] s[13][3] </args>
        <args> w[13][4] s[13][4] </args>
        <args> w[13][5] s[13][5] </args>
        <args> w[13][6] s[13][6] </args>
        <args> w[13][7] s[13][7] </args>
        <args> w[13][8] s[13][8] </args>
        <args> w[13][9] s[13][9] </args>
        <args> w[13][10] s[13][10] </args>
        <args> w[13][11] s[13][11] </args>
        <args> w[13][12] s[13][12] </args>
        <args> w[13][13] s[13][13] </args>
        <args> w[13][14] s[13][14] </args>
      </group>
      <group>
        <element>
          <list> sd[14][] </list>
          <index> %0 </index>
          <value> %1 </value>
        </element>
        <args> w[14][0] s[14][0] </args>
        <args> w[14][1] s[14][1] </args>
        <args> w[14][2] s[14][2] </args>
        <args> w[14][3] s[14][3] </args>
        <args> w[14][4] s[14][4] </args>
        <args> w[14][5] s[14][5] </args>
        <args> w[14][6] s[14][6] </args>
        <args> w[14][7] s[14][7] </args>
        <args> w[14][8] s[14][8] </args>
        <args> w[14][9] s[14][9] </args>
        <args> w[14][10] s[14][10] </args>
        <args> w[14][11] s[14][11] </args>
        <args> w[14][12] s[14][12] </args>
        <args> w[14][13] s[14][13] </args>
        <args> w[14][14] s[14][14] </args>
      </group>
    </block>
    <block>
      <noOverlap>
        <origins> sd[][0] </origins>
        <lengths> 28 6 16 29 93 19 40 10 41 55 73 44 65 5 21 </lengths>
      </noOverlap>
      <noOverlap>
        <origins> sd[][1] </origins>
        <lengths> 98 80 47 65 24 36 61 18 18 33 55 66 70 58 94 </lengths>
      </noOverlap>
      <noOverlap>
        <origins> sd[][2] </origins>
        <lengths> 10 83 81 58 78 48 56 34 76 6 36 77 7 14 41 </lengths>
      </noOverlap>
      <noOverlap>
        <origins> sd[][3] </origins>
        <lengths> 53 73 68 70 5 82 62 90 19 82 8 51 75 84 79 </lengths>
      </noOverlap>
      <noOverlap>
        <origins> sd[][4] </origins>
        <lengths> 16 25 85 72 43 11 56 65 2 24 78 59 63 20 65 </lengths>
      </noOverlap>
      <noOverlap>
        <origins> sd[][5] </origins>
        <lengths> 21 77 32 39 43 48 94 60 27 59 8 28 58 16 88 </lengths>
      </noOverlap>
      <noOverlap>
        <origins> sd[][6] </origins>
        <lengths> 16 72 85 42 27 16 6 39 33 69 50 48 67 40 40 </lengths>
      </noOverlap>
      <noOverlap>
        <origins> sd[][7] </origins>
        <lengths> 47 23 86 22 35 63 3 86 55 44 82 17 3 78 13 </lengths>
      </noOverlap>
      <noOverlap>
        <origins> sd[][8] </origins>
        <lengths> 78 40 9 99 33 42 72 74 60 66 9 44 68 51 72 </lengths>
      </noOverlap>
      <noOverlap>
        <origins> sd[][9] </origins>
        <lengths> 19 18 58 82 58 75 29 80 51 36 84 86 84 86 91 </lengths>
      </noOverlap>
      <noOverlap>
        <origins> sd[][10] </origins>
        <lengths> 85 57 78 54 60 55 10 22 56 82 35 26 64 79 4 </lengths>
      </noOverlap>
      <noOverlap>
        <origins> sd[][11] </origins>
        <lengths> 8 51 65 70 38 42 40 1 82 53 60 38 80 5 26 </lengths>
      </noOverlap>
      <noOverlap>
        <origins> sd[][12] </origins>
        <lengths> 22 36 56 47 88 72 51 4 25 96 98 23 23 32 23 </lengths>
      </noOverlap>
      <noOverlap>
        <origins> sd[][13] </origins>
        <lengths> 46 23 38 78 79 15 43 82 80 44 35 20 89 57 86 </lengths>
      </noOverlap>
      <noOverlap>
        <origins> sd[][14] </origins>
        <lengths> 78 71 81 97 70 67 33 23 47 25 59 39 98 83 17 </lengths>
      </noOverlap>
    </block>
    <group class="redundantConstraints">
      <intension> ge(%0,%1) </intension>
      <args> e[0] 625 </args>
      <args> e[1] 735 </args>
      <args> e[2] 885 </args>
      <args> e[3] 924 </args>
      <args> e[4] 774 </args>
      <args> e[5] 691 </args>
      <args> e[6] 656 </args>
      <args> e[7] 688 </args>
      <args> e[8] 672 </args>
      <args> e[9] 774 </args>
      <args> e[10] 770 </args>
      <args> e[11] 666 </args>
      <args> e[12] 914 </args>
      <args> e[13] 708 </args>
      <args> e[14] 760 </args>
    </group>
  </constraints>
  <objectives>
    <minimize type="maximum"> e[] </minimize>
  </objectives>
</instance>
